500
400
320
320
320
319
319
319
319
318
318
318
317
316
314
314
313
312
312
311
311
310
310
309
309
309
309
308
308
308
308
308
307
307
307
306
305
303
302
302
302
301
301
301
300
300
300
300
300
299
298
297
297
296
296
296
295
295
295
294
294
294
294
294
293
293
292
292
292
292
292
292
292
291
291
291
290
290
290
288
288
288
287
287
286
286
286
286
285
284
284
283
282
282
282
281
280
280
279
279
279
279
278
278
278
276
275
275
275
275
273
271
271
270
269
269
269
269
268
268
268
267
267
266
266
266
264
263
263
261
261
261
259
259
259
258
257
256
256
256
256
256
255
255
254
253
253
252
251
251
251
251
250
250
250
249
249
246
246
246
244
243
243
243
243
243
242
242
241
240
240
240
239
238
237
237
237
237
237
236
236
235
234
234
234
234
234
232
231
231
230
229
228
227
227
226
225
225
224
223
223
222
222
222
222
221
221
221
220
220
220
220
217
217
216
216
215
215
214
214
213
213
212
212
211
210
209
209
209
207
206
205
205
204
204
203
203
202
202
200
199
199
198
198
198
198
197
197
197
196
196
196
196
194
194
193
193
193
193
192
190
190
189
188
187
187
187
186
185
185
184
184
183
183
183
183
181
180
179
179
178
178
177
176
175
174
174
173
173
172
168
165
164
163
162
161
161
161
160
159
159
159
159
158
157
156
156
156
155
155
155
155
154
152
152
151
151
151
150
150
149
149
149
147
147
147
145
145
145
145
144
144
144
143
143
141
141
140
140
139
138
138
137
137
136
132
132
131
130
130
129
129
129
128
128
128
125
125
125
125
124
124
124
122
121
120
118
117
117
116
115
115
114
114
114
113
112
110
110
110
110
110
110
109
109
109
109
106
104
103
103
103
102
102
102
101
100
100
99
97
97
97
96
96
95
94
94
94
93
93
92
92
91
90
90
88
87
87
86
84
84
84
83
82
81
81
80
79
79
78
78
78
77
77
77
77
77
77
76
75
74
74
74
73
72
71
70
69
68
68
68
67
67
66
63
62
62
62
61
61
60
60
59
59
59
58
58
58
57
57
57
57
56
56
55
53
53
53
52
52
51
51
50
48
48
45
45
45
44
44
43
43
43
43
42
41
41
41
41
40
40
40
